(set-logic QF_BV)
(declare-fun _substvar_150_ () (_ BitVec 64))
(declare-fun _substvar_154_ () (_ BitVec 64))
(declare-fun _substvar_182_ () (_ BitVec 64))
(declare-fun _substvar_145_ () (_ BitVec 64))
(assert (= _substvar_150_ (bvmul _substvar_145_ ((_ extract 63 0) (_ bv100 64)))))
(assert (= _substvar_154_ (bvsdiv _substvar_150_ _substvar_182_)))
(assert (= false (bvsle _substvar_154_ (_ bv0 64))))
(assert (= false (bvsle (_ bv0 64) _substvar_182_)))
(check-sat)
(exit)
